
Gurobi 8.1.1 (linux64, Python) logging started Mon Oct 21 21:36:46 2019


Gurobi 8.1.1 (linux64, Python) logging started Mon Oct 21 21:43:52 2019


Gurobi 8.1.1 (linux64, Python) logging started Mon Oct 21 21:46:46 2019


Gurobi 8.1.1 (linux64, Python) logging started Mon Oct 21 21:48:26 2019


Gurobi 8.1.1 (linux64, Python) logging started Mon Oct 21 21:48:41 2019


Gurobi 8.1.1 (linux64, Python) logging started Mon Oct 21 21:50:04 2019


Gurobi 8.1.1 (linux64, Python) logging started Mon Oct 21 21:50:15 2019


Gurobi 8.1.1 (linux64, Python) logging started Mon Oct 21 21:51:01 2019


Gurobi 8.1.1 (linux64, Python) logging started Mon Oct 21 21:51:55 2019


Gurobi 8.1.1 (linux64, Python) logging started Mon Oct 21 21:52:55 2019

Optimize a model with 200 rows, 200 columns and 200 nonzeros
Variable types: 0 continuous, 200 integer (0 binary)
Coefficient statistics:
  Matrix range     [2e+00, 6e+00]
  Objective range  [3e+01, 3e+02]
  Bounds range     [1e+00, 1e+00]
  RHS range        [1e+00, 1e+00]
Presolve time: 0.00s

Explored 0 nodes (0 simplex iterations) in 0.02 seconds
Thread count was 1 (of 4 available processors)

Solution count 0

Model is infeasible
Best objective -, best bound -, gap -

Gurobi 8.1.1 (linux64, Python) logging started Mon Oct 21 21:56:42 2019

Optimize a model with 200 rows, 200 columns and 200 nonzeros
Variable types: 0 continuous, 200 integer (0 binary)
Coefficient statistics:
  Matrix range     [2e+00, 6e+00]
  Objective range  [3e+01, 3e+02]
  Bounds range     [1e+00, 1e+00]
  RHS range        [1e+00, 1e+00]
Found heuristic solution: objective 29646.330691
Presolve removed 200 rows and 200 columns
Presolve time: 0.01s
Presolve: All rows and columns removed

Explored 0 nodes (0 simplex iterations) in 0.02 seconds
Thread count was 1 (of 4 available processors)

Solution count 1: 29646.3 

Optimal solution found (tolerance 1.00e-04)
Best objective 2.964633069094e+04, best bound 2.964633069094e+04, gap 0.0000%

Gurobi 8.1.1 (linux64, Python) logging started Mon Oct 21 21:57:04 2019

Optimize a model with 200 rows, 200 columns and 200 nonzeros
Variable types: 0 continuous, 200 integer (0 binary)
Coefficient statistics:
  Matrix range     [2e+00, 6e+00]
  Objective range  [3e+01, 3e+02]
  Bounds range     [1e+00, 1e+00]
  RHS range        [1e+00, 1e+00]
Found heuristic solution: objective 29646.330691
Presolve removed 200 rows and 200 columns
Presolve time: 0.00s
Presolve: All rows and columns removed

Explored 0 nodes (0 simplex iterations) in 0.01 seconds
Thread count was 1 (of 4 available processors)

Solution count 1: 29646.3 

Optimal solution found (tolerance 1.00e-04)
Best objective 2.964633069094e+04, best bound 2.964633069094e+04, gap 0.0000%

Gurobi 8.1.1 (linux64, Python) logging started Mon Oct 21 22:00:14 2019

Optimize a model with 200 rows, 200 columns and 200 nonzeros
Variable types: 0 continuous, 200 integer (0 binary)
Coefficient statistics:
  Matrix range     [2e+00, 6e+00]
  Objective range  [3e+01, 3e+02]
  Bounds range     [1e+00, 1e+00]
  RHS range        [1e+00, 1e+00]
Found heuristic solution: objective 29646.330691
Presolve removed 200 rows and 200 columns
Presolve time: 0.00s
Presolve: All rows and columns removed

Explored 0 nodes (0 simplex iterations) in 0.01 seconds
Thread count was 1 (of 4 available processors)

Solution count 1: 29646.3 

Optimal solution found (tolerance 1.00e-04)
Best objective 2.964633069094e+04, best bound 2.964633069094e+04, gap 0.0000%

Gurobi 8.1.1 (linux64, Python) logging started Mon Oct 21 22:01:22 2019


Gurobi 8.1.1 (linux64, Python) logging started Mon Oct 21 22:01:43 2019

Optimize a model with 200 rows, 200 columns and 200 nonzeros
Variable types: 0 continuous, 200 integer (0 binary)
Coefficient statistics:
  Matrix range     [2e+00, 6e+00]
  Objective range  [3e+01, 3e+02]
  Bounds range     [1e+00, 1e+00]
  RHS range        [1e+00, 1e+00]
Found heuristic solution: objective 29646.330691
Presolve removed 200 rows and 200 columns
Presolve time: 0.00s
Presolve: All rows and columns removed

Explored 0 nodes (0 simplex iterations) in 0.01 seconds
Thread count was 1 (of 4 available processors)

Solution count 1: 29646.3 

Optimal solution found (tolerance 1.00e-04)
Best objective 2.964633069094e+04, best bound 2.964633069094e+04, gap 0.0000%

Gurobi 8.1.1 (linux64, Python) logging started Mon Oct 21 22:02:01 2019

Optimize a model with 200 rows, 200 columns and 200 nonzeros
Variable types: 0 continuous, 200 integer (0 binary)
Coefficient statistics:
  Matrix range     [2e+00, 6e+00]
  Objective range  [3e+01, 3e+02]
  Bounds range     [1e+00, 1e+00]
  RHS range        [1e+00, 1e+00]
Found heuristic solution: objective 29646.330691
Presolve removed 200 rows and 200 columns
Presolve time: 0.00s
Presolve: All rows and columns removed

Explored 0 nodes (0 simplex iterations) in 0.01 seconds
Thread count was 1 (of 4 available processors)

Solution count 1: 29646.3 

Optimal solution found (tolerance 1.00e-04)
Best objective 2.964633069094e+04, best bound 2.964633069094e+04, gap 0.0000%

Gurobi 8.1.1 (linux64, Python) logging started Mon Oct 21 22:02:36 2019

Optimize a model with 200 rows, 200 columns and 200 nonzeros
Variable types: 0 continuous, 200 integer (0 binary)
Coefficient statistics:
  Matrix range     [2e+00, 6e+00]
  Objective range  [3e+01, 3e+02]
  Bounds range     [1e+00, 1e+00]
  RHS range        [1e+00, 1e+00]
Found heuristic solution: objective 29646.330691
Presolve removed 200 rows and 200 columns
Presolve time: 0.00s
Presolve: All rows and columns removed

Explored 0 nodes (0 simplex iterations) in 0.01 seconds
Thread count was 1 (of 4 available processors)

Solution count 1: 29646.3 

Optimal solution found (tolerance 1.00e-04)
Best objective 2.964633069094e+04, best bound 2.964633069094e+04, gap 0.0000%

Gurobi 8.1.1 (linux64, Python) logging started Mon Oct 21 22:03:09 2019

Optimize a model with 200 rows, 200 columns and 200 nonzeros
Variable types: 0 continuous, 200 integer (0 binary)
Coefficient statistics:
  Matrix range     [2e+00, 6e+00]
  Objective range  [3e+01, 3e+02]
  Bounds range     [1e+00, 1e+00]
  RHS range        [1e+00, 1e+00]
Found heuristic solution: objective 29646.330691
Presolve removed 200 rows and 200 columns
Presolve time: 0.00s
Presolve: All rows and columns removed

Explored 0 nodes (0 simplex iterations) in 0.01 seconds
Thread count was 1 (of 4 available processors)

Solution count 1: 29646.3 

Optimal solution found (tolerance 1.00e-04)
Best objective 2.964633069094e+04, best bound 2.964633069094e+04, gap 0.0000%

Gurobi 8.1.1 (linux64, Python) logging started Mon Oct 21 22:04:07 2019

Optimize a model with 200 rows, 200 columns and 200 nonzeros
Variable types: 0 continuous, 200 integer (0 binary)
Coefficient statistics:
  Matrix range     [2e+00, 6e+00]
  Objective range  [3e+01, 3e+02]
  Bounds range     [1e+00, 1e+00]
  RHS range        [1e+00, 1e+00]
Found heuristic solution: objective 29646.330691
Presolve removed 200 rows and 200 columns
Presolve time: 0.00s
Presolve: All rows and columns removed

Explored 0 nodes (0 simplex iterations) in 0.01 seconds
Thread count was 1 (of 4 available processors)

Solution count 1: 29646.3 

Optimal solution found (tolerance 1.00e-04)
Best objective 2.964633069094e+04, best bound 2.964633069094e+04, gap 0.0000%

Gurobi 8.1.1 (linux64, Python) logging started Mon Oct 21 22:04:22 2019

Optimize a model with 200 rows, 200 columns and 200 nonzeros
Variable types: 0 continuous, 200 integer (0 binary)
Coefficient statistics:
  Matrix range     [2e+00, 6e+00]
  Objective range  [3e+01, 3e+02]
  Bounds range     [1e+00, 1e+00]
  RHS range        [1e+00, 1e+00]
Found heuristic solution: objective 29646.330691
Presolve removed 200 rows and 200 columns
Presolve time: 0.00s
Presolve: All rows and columns removed

Explored 0 nodes (0 simplex iterations) in 0.01 seconds
Thread count was 1 (of 4 available processors)

Solution count 1: 29646.3 

Optimal solution found (tolerance 1.00e-04)
Best objective 2.964633069094e+04, best bound 2.964633069094e+04, gap 0.0000%

Gurobi 8.1.1 (linux64, Python) logging started Mon Oct 21 22:05:05 2019

Optimize a model with 200 rows, 200 columns and 200 nonzeros
Variable types: 0 continuous, 200 integer (0 binary)
Coefficient statistics:
  Matrix range     [2e+00, 6e+00]
  Objective range  [3e+01, 3e+02]
  Bounds range     [1e+00, 1e+00]
  RHS range        [1e+00, 1e+00]
Found heuristic solution: objective 29646.330691
Presolve removed 200 rows and 200 columns
Presolve time: 0.00s
Presolve: All rows and columns removed

Explored 0 nodes (0 simplex iterations) in 0.01 seconds
Thread count was 1 (of 4 available processors)

Solution count 1: 29646.3 

Optimal solution found (tolerance 1.00e-04)
Best objective 2.964633069094e+04, best bound 2.964633069094e+04, gap 0.0000%
